COMMENT : User-drawn TSP problem
TYPE : TSP
DIMENSION : 27
EDGE_WEIGHT_TYPE : EUC_2D
NODE_COORD_SECTION
1 152 218
2 252 274
3 407 219
4 258 214
5 241 238
6 452 409
7 500 580
8 708 160
9 606 146
10 342 14
11 223 92
12 355 162
13 554 249
14 417 500
15 267 422
16 353 465
17 365 386
18 278 365
19 106 330
20 122 432
21 158 469
22 247 518
23 140 551
24 218 547
25 166 526
26 418 64
27 293 528
EOF
